p cnf 7230 15
3040 3041 0
2370 -3041 0
-2370 -3040 0
3038 3039 0
2368 -3039 0
-2368 -3038 0
3036 3037 0
2366 -3037 0
-2366 -3036 0
3034 3035 0
2364 -3035 0
-2364 -3034 0
3032 3033 0
2362 -3033 0
-2362 -3032 0
